(declare-fun temp2522_2 () (_ BitVec 64))
(declare-fun temp2522_1 () (_ BitVec 64))
(declare-fun temp2522_4 () (_ BitVec 64))
(declare-fun temp2522_3 () (_ BitVec 64))
(declare-fun temp2522_6 () (_ BitVec 64))
(declare-fun temp2522_5 () (_ BitVec 64))
(declare-fun temp2522_8 () (_ BitVec 64))
(declare-fun temp2522_7 () (_ BitVec 64))
(declare-fun temp2522_9 () (_ BitVec 64))
(declare-fun var2174808 () (_ BitVec 64))
(declare-fun var2174932 () (_ BitVec 64))
(declare-fun temp2522_11 () (_ BitVec 64))
(declare-fun temp2522_10 () (_ BitVec 64))
(declare-fun temp2522_13 () (_ BitVec 64))
(declare-fun temp2522_12 () (_ BitVec 64))
(declare-fun temp2522_15 () (_ BitVec 64))
(declare-fun temp2522_14 () (_ BitVec 64))
(declare-fun temp2522_17 () (_ BitVec 64))
(declare-fun temp2522_16 () (_ BitVec 64))
(declare-fun temp2522_18 () (_ BitVec 64))
(declare-fun var5386072 () (_ BitVec 64))
(declare-fun var5386196 () (_ BitVec 64))
(declare-fun temp2522_20 () (_ BitVec 64))
(declare-fun temp2522_19 () (_ BitVec 64))
(declare-fun temp2522_22 () (_ BitVec 64))
(declare-fun temp2522_21 () (_ BitVec 64))
(declare-fun temp2522_24 () (_ BitVec 64))
(declare-fun temp2522_23 () (_ BitVec 64))
(declare-fun temp2522_26 () (_ BitVec 64))
(declare-fun temp2522_25 () (_ BitVec 64))
(declare-fun temp2522_28 () (_ BitVec 64))
(declare-fun temp2522_27 () (_ BitVec 64))
(declare-fun temp2522_29 () (_ BitVec 64))
(declare-fun var8269656 () (_ BitVec 64))
(declare-fun var8269780 () (_ BitVec 64))
(declare-fun temp2522_31 () (_ BitVec 64))
(declare-fun temp2522_30 () (_ BitVec 64))
(declare-fun temp2522_32 () (_ BitVec 64))
(declare-fun var9513073 () (_ BitVec 64))
(declare-fun var2175221 () (_ BitVec 64))
(declare-fun temp2522_33 () (_ BitVec 64))
(declare-fun var2175222 () (_ BitVec 64))
(declare-fun temp2522_34 () (_ BitVec 64))
(assert (= temp2522_2 #x0000000000000000))
(assert (= temp2522_1 temp2522_2))
(assert (= temp2522_4 #x0000000000000001))
(assert (= temp2522_3 temp2522_4))
(assert (= temp2522_6 #x0000000000000000))
(assert (= temp2522_5 temp2522_6))
(assert (= temp2522_8 #x0000000000000001))
(assert (= temp2522_7 temp2522_8))
(assert (= temp2522_9 #x0000000000000000))
(assert (= var2174808 temp2522_9))
(assert (= var2174932 var2174808))
(assert (= temp2522_11 #x0000000000000000))
(assert (= temp2522_10 temp2522_11))
(assert (= temp2522_13 #x0000000000000001))
(assert (= temp2522_12 temp2522_13))
(assert (= temp2522_15 #x0000000000000000))
(assert (= temp2522_14 temp2522_15))
(assert (= temp2522_17 #x0000000000000001))
(assert (= temp2522_16 temp2522_17))
(assert (= temp2522_18 #x0000000000000000))
(assert (= var5386072 temp2522_18))
(assert (= var5386196 var5386072))
(assert (= temp2522_20 #x0000000000000001))
(assert (= temp2522_19 temp2522_20))
(assert (= temp2522_22 #x0000000000000000))
(assert (= temp2522_21 temp2522_22))
(assert (= temp2522_24 #x0000000000000001))
(assert (= temp2522_23 temp2522_24))
(assert (= temp2522_26 #x0000000000000000))
(assert (= temp2522_25 temp2522_26))
(assert (= temp2522_28 #x0000000000000001))
(assert (= temp2522_27 temp2522_28))
(assert (= temp2522_29 #x0000000000000000))
(assert (= var8269656 temp2522_29))
(assert (= var8269780 var8269656))
(assert (= temp2522_31 #x0000000000000001))
(assert (= temp2522_30 temp2522_31))
(assert (= temp2522_32 #x0000000000000000))
(assert (= var9513073 temp2522_32))
(assert (= var2175221 var2174932))
(assert (= temp2522_33 #x0000000000000000))
(assert (= var2175222
   (ite (= var2175221 temp2522_33) #x0000000000000001 #x0000000000000000)))
(assert (= temp2522_34 #x0000000000000001))
(assert (= var2175222 temp2522_34))
(model-add temp2522_2 () (_ BitVec 64) #x0000000000000000)
(model-add temp2522_1 () (_ BitVec 64) #x0000000000000000)
(model-add temp2522_4 () (_ BitVec 64) #x0000000000000001)
(model-add temp2522_3 () (_ BitVec 64) #x0000000000000001)
(model-add temp2522_6 () (_ BitVec 64) #x0000000000000000)
(model-add temp2522_5 () (_ BitVec 64) #x0000000000000000)
(model-add temp2522_8 () (_ BitVec 64) #x0000000000000001)
(model-add temp2522_7 () (_ BitVec 64) #x0000000000000001)
(model-add temp2522_9 () (_ BitVec 64) #x0000000000000000)
(model-add var2174808 () (_ BitVec 64) #x0000000000000000)
(model-add var2174932 () (_ BitVec 64) #x0000000000000000)
(model-add temp2522_11 () (_ BitVec 64) #x0000000000000000)
(model-add temp2522_10 () (_ BitVec 64) #x0000000000000000)
(model-add temp2522_13 () (_ BitVec 64) #x0000000000000001)
(model-add temp2522_12 () (_ BitVec 64) #x0000000000000001)
(model-add temp2522_15 () (_ BitVec 64) #x0000000000000000)
(model-add temp2522_14 () (_ BitVec 64) #x0000000000000000)
(model-add temp2522_17 () (_ BitVec 64) #x0000000000000001)
(model-add temp2522_16 () (_ BitVec 64) #x0000000000000001)
(model-add temp2522_18 () (_ BitVec 64) #x0000000000000000)
(model-add var5386072 () (_ BitVec 64) #x0000000000000000)
(model-add var5386196 () (_ BitVec 64) #x0000000000000000)
(model-add temp2522_20 () (_ BitVec 64) #x0000000000000001)
(model-add temp2522_19 () (_ BitVec 64) #x0000000000000001)
(model-add temp2522_22 () (_ BitVec 64) #x0000000000000000)
(model-add temp2522_21 () (_ BitVec 64) #x0000000000000000)
(model-add temp2522_24 () (_ BitVec 64) #x0000000000000001)
(model-add temp2522_23 () (_ BitVec 64) #x0000000000000001)
(model-add temp2522_26 () (_ BitVec 64) #x0000000000000000)
(model-add temp2522_25 () (_ BitVec 64) #x0000000000000000)
(model-add temp2522_28 () (_ BitVec 64) #x0000000000000001)
(model-add temp2522_27 () (_ BitVec 64) #x0000000000000001)
(model-add temp2522_29 () (_ BitVec 64) #x0000000000000000)
(model-add var8269656 () (_ BitVec 64) #x0000000000000000)
(model-add var8269780 () (_ BitVec 64) #x0000000000000000)
(model-add temp2522_31 () (_ BitVec 64) #x0000000000000001)
(model-add temp2522_30 () (_ BitVec 64) #x0000000000000001)
(model-add temp2522_32 () (_ BitVec 64) #x0000000000000000)
(model-add var9513073 () (_ BitVec 64) #x0000000000000000)
(model-add var2175221 () (_ BitVec 64) #x0000000000000000)
(model-add temp2522_33 () (_ BitVec 64) #x0000000000000000)
(model-add var2175222 () (_ BitVec 64) #x0000000000000001)
(model-add temp2522_34 () (_ BitVec 64) #x0000000000000001)






